(set-logic ALL)
(declare-const GEN1 Int)
(declare-const GEN2 Int)
(declare-const GEN3 Int)
(declare-const GEN4 Int)
(declare-const GEN5 Int)
(declare-const BAV6 Bool)
(declare-const BAV7 Bool)
(declare-const BAV8 Bool)
(declare-const BAV9 Bool)
(declare-const BAV10 Bool)
(set-option :auto-config true)
(set-option :produce-models true)
(set-info :smt-lib-version 2.0)
(declare-fun v () Int)
(declare-fun x () Int)
(assert (and (<= GEN1 v) (< GEN2 x) (<= x GEN3) (not (> (- x GEN4) GEN5))))
(assert (= BAV6 (and (<= GEN1 v) (< GEN2 x) (<= x GEN3) (not (> (- x GEN4) GEN5)))))
(assert (= BAV7 (<= GEN1 v)))
(assert (= BAV8 (< GEN2 x)))
(assert (= BAV9 (<= x GEN3)))
(assert (= BAV10 (> (- x GEN4) GEN5)))
(check-sat)
(get-model)